src/asp/benchmarks/medium7.lp
citta(marsciano).
citta(corciano).
citta(san_giustino).
citta(magione).
citta(gualdo_tardino).
citta(todi).

richiesta(marsciano, strade, 25).
richiesta(marsciano, fiumi, 9).
richiesta(marsciano, scuole, 2).
richiesta(marsciano, parchi, 39).
richiesta(marsciano, energia, 40).

richiesta(corciano, strade, 8).
richiesta(corciano, fiumi, 4).
richiesta(corciano, scuole, 16).
richiesta(corciano, parchi, 47).
richiesta(corciano, energia, 47).

richiesta(san_giustino, strade, 38).
richiesta(san_giustino, fiumi, 88).
richiesta(san_giustino, scuole, 21).
richiesta(san_giustino, parchi, 8).
richiesta(san_giustino, energia, 129).

richiesta(magione, strade, 67).
richiesta(magione, fiumi, 48).
richiesta(magione, scuole, 32).
richiesta(magione, parchi, 4).
richiesta(magione, energia, 44).

richiesta(gualdo_tardino, strade, 22).
richiesta(gualdo_tardino, fiumi, 24).
richiesta(gualdo_tardino, scuole, 19).
richiesta(gualdo_tardino, parchi, 21).
richiesta(gualdo_tardino, energia, 26).

richiesta(todi, strade, 39).
richiesta(todi, fiumi, 3).
richiesta(todi, scuole, 46).
richiesta(todi, parchi, 52).
richiesta(todi, energia, 16).

