src/minizinc/benchmarks/medium7.dzn
COMUNI = {
	perugia,
	assisi,
	marsciano,
	magione,
	spoleto,
	san_giustino,
	amelia,
	foligno,
};

NUMERO_COMUNI = 8;

ABITANTI_PER_COMUNE = [161, 27, 18, 14, 36, 11, 11, 55];

STRADE_TRA_COMUNI = [|
	false, false, true, false, false, false, false, false |
	false, false, false, false, false, false, false, true |
	true, false, false, false, false, false, false, false |
	false, false, false, false, false, false, false, false |
	false, false, false, false, false, false, false, false |
	false, false, false, false, false, false, false, false |
	false, false, false, false, false, false, false, false |
	false, true, false, false, false, false, false, false |
|];

RICHIESTE = [|
	27, 6, 7, 46, 24 |
	4, 96, 85, 10, 32 |
	6, 55, 48, 29, 20 |
	6, 7, 10, 25, 24 |
	9, 5, 23, 39, 7 |
	28, 42, 50, 6, 13 |
	1, 14, 48, 0, 50 |
	11, 58, 1, 1, 7 |
|];
